r = [
0,164,121,73,20,114,6,114,47,109,38,1,143,101,22,15,72,59,35,103,134,69,96,6,154,61,0
];
p = [
0,2,17,25,9,1,19,14,18,7,1,20,24,5,1,10,14,13,19,1,24,26,16,28,22,4,0
];
e = [
0,10,15,6,16,1,11,8,11,9,11,6,12,8,10,8,16,18,4,5,5,14,18,5,4,7,0
];
d = [
0,247,159,228,111,398,285,174,364,404,137,117,292,340,116,333,138,219,351,387,244,301,388,283,371,323,410
];
d_bar = [
0,249,174,251,119,399,302,187,380,410,138,135,314,345,117,342,151,231,368,388,266,324,402,308,391,327,410
];
w = [
0,5,1,0.260869565,2,1,0.647058824,0.615384615,0.6875,1.5,11,0.333333333,0.545454545,1.6,10,0.888888889,1.230769231,1.5,0.235294118,5,0.227272727,0.608695652,1.285714286,0.2,0.2,1.75,0
];
